31911.0
18, 30, 52, 141, 215, 229, 274, 287, 347, 379, 386, 550, 564, 567, 590, 599, 732, 793, 819, 824, 830, 987, 1005, 1115, 1117, 1143, 1284, 1322, 1361, 1433, 1457, 1472, 1483, 1588, 1590, 1617, 1745, 1805, 1808, 1830, 1868, 1873, 1890, 1891, 1904